;; translated from ./ctigar/substring1.c.vmt
;; original benchmark available at: https://es-static.fbk.eu/people/griggio/ic3ia/index.html
;; author: Alberto Griggio <griggio@fbk.eu>
(set-logic HORN)
(declare-fun state (Bool Bool Bool Bool Bool Int Int Int Int Int) Bool)
(assert (forall ((|.s.2| Bool) (|.s.3| Bool) (|.s.0| Bool) (|.s.1| Bool) (|.s.1.next| Bool) (|.s.0.next| Bool) (|.s.2.next| Bool) (|.s.3.next| Bool) (|.s.4.next| Bool) (|main.i.next| Int) (|main.i| Int) (|main.j.next| Int) (|main.j| Int) (|main.k.next| Int) (|main.k| Int) (|main.to.next| Int) (|main.to| Int) (|main.from.next| Int) (|main.from| Int) (|.s.4| Bool)) (=> (let ((.def_20 (not .s.4)))
(let ((.def_17 (not .s.3)))
(let ((.def_14 (not .s.2)))
(let ((.def_10 (not .s.1)))
(let ((.def_12 (and .def_10 .s.0)))
(let ((.def_15 (and .def_12 .def_14)))
(let ((.def_18 (and .def_15 .def_17)))
(let ((.def_21 (and .def_18 .def_20)))
.def_21)))))))) (state |.s.1| |.s.0| |.s.2| |.s.3| |.s.4| |main.i| |main.j| |main.k| |main.to| |main.from|))))
(assert (forall ((|.s.2| Bool) (|.s.3| Bool) (|.s.0| Bool) (|.s.1| Bool) (|.s.1.next| Bool) (|.s.0.next| Bool) (|.s.2.next| Bool) (|.s.3.next| Bool) (|.s.4.next| Bool) (|main.i.next| Int) (|main.i| Int) (|main.j.next| Int) (|main.j| Int) (|main.k.next| Int) (|main.k| Int) (|main.to.next| Int) (|main.to| Int) (|main.from.next| Int) (|main.from| Int) (|.s.4| Bool)) (=> (and (state |.s.1| |.s.0| |.s.2| |.s.3| |.s.4| |main.i| |main.j| |main.k| |main.to| |main.from|) (let ((.def_22 (not .s.0)))
(let ((.def_10 (not .s.1)))
(let ((.def_75 (and .def_10 .def_22)))
(let ((.def_14 (not .s.2)))
(let ((.def_76 (and .def_14 .def_75)))
(let ((.def_17 (not .s.3)))
(let ((.def_77 (and .def_17 .def_76)))
(let ((.def_20 (not .s.4)))
(let ((.def_316 (and .def_20 .def_77)))
(let ((.def_317 (not .def_316)))
(let ((.def_64 (not .s.1.next)))
(let ((.def_29 (not .s.0.next)))
(let ((.def_65 (and .def_29 .def_64)))
(let ((.def_33 (not .s.2.next)))
(let ((.def_66 (and .def_33 .def_65)))
(let ((.def_36 (not .s.3.next)))
(let ((.def_67 (and .def_36 .def_66)))
(let ((.def_63 (not .s.4.next)))
(let ((.def_68 (and .def_63 .def_67)))
(let ((.def_42 (= main.i main.i.next)))
(let ((.def_69 (and .def_42 .def_68)))
(let ((.def_46 (= main.j main.j.next)))
(let ((.def_70 (and .def_46 .def_69)))
(let ((.def_50 (= main.k main.k.next)))
(let ((.def_71 (and .def_50 .def_70)))
(let ((.def_54 (= main.to main.to.next)))
(let ((.def_72 (and .def_54 .def_71)))
(let ((.def_58 (= main.from main.from.next)))
(let ((.def_73 (and .def_58 .def_72)))
(let ((.def_318 (or .def_73 .def_317)))
(let ((.def_31 (and .def_29 .s.1.next)))
(let ((.def_34 (and .def_31 .def_33)))
(let ((.def_37 (and .def_34 .def_36)))
(let ((.def_309 (and .def_37 .def_63)))
(let ((.def_310 (and .def_42 .def_309)))
(let ((.def_311 (and .def_46 .def_310)))
(let ((.def_312 (and .def_50 .def_311)))
(let ((.def_313 (and .def_54 .def_312)))
(let ((.def_314 (and .def_58 .def_313)))
(let ((.def_295 (<= 0 main.k)))
(let ((.def_306 (not .def_295)))
(let ((.def_12 (and .def_10 .s.0)))
(let ((.def_15 (and .def_12 .def_14)))
(let ((.def_18 (and .def_15 .def_17)))
(let ((.def_21 (and .def_18 .def_20)))
(let ((.def_307 (and .def_21 .def_306)))
(let ((.def_308 (not .def_307)))
(let ((.def_315 (or .def_308 .def_314)))
(let ((.def_319 (and .def_315 .def_318)))
(let ((.def_113 (and .s.0.next .s.1.next)))
(let ((.def_114 (and .def_33 .def_113)))
(let ((.def_298 (and .def_36 .def_114)))
(let ((.def_299 (and .def_63 .def_298)))
(let ((.def_300 (and .def_42 .def_299)))
(let ((.def_301 (and .def_46 .def_300)))
(let ((.def_302 (and .def_50 .def_301)))
(let ((.def_303 (and .def_54 .def_302)))
(let ((.def_304 (and .def_58 .def_303)))
(let ((.def_296 (and .def_21 .def_295)))
(let ((.def_297 (not .def_296)))
(let ((.def_305 (or .def_297 .def_304)))
(let ((.def_320 (and .def_305 .def_319)))
(let ((.def_23 (and .s.1 .def_22)))
(let ((.def_24 (and .def_14 .def_23)))
(let ((.def_25 (and .def_17 .def_24)))
(let ((.def_292 (and .def_20 .def_25)))
(let ((.def_293 (not .def_292)))
(let ((.def_294 (or .def_73 .def_293)))
(let ((.def_321 (and .def_294 .def_320)))
(let ((.def_80 (and .s.0.next .def_64)))
(let ((.def_148 (and .s.2.next .def_80)))
(let ((.def_284 (and .def_36 .def_148)))
(let ((.def_285 (and .def_63 .def_284)))
(let ((.def_286 (and .def_42 .def_285)))
(let ((.def_287 (and .def_46 .def_286)))
(let ((.def_288 (and .def_50 .def_287)))
(let ((.def_289 (and .def_54 .def_288)))
(let ((.def_290 (and .def_58 .def_289)))
(let ((.def_270 (<= main.k 100)))
(let ((.def_90 (and .s.1 .s.0)))
(let ((.def_157 (and .def_14 .def_90)))
(let ((.def_267 (and .def_17 .def_157)))
(let ((.def_268 (and .def_20 .def_267)))
(let ((.def_282 (and .def_268 .def_270)))
(let ((.def_283 (not .def_282)))
(let ((.def_291 (or .def_283 .def_290)))
(let ((.def_322 (and .def_291 .def_321)))
(let ((.def_164 (and .s.2.next .def_65)))
(let ((.def_274 (and .def_36 .def_164)))
(let ((.def_275 (and .def_63 .def_274)))
(let ((.def_276 (and .def_42 .def_275)))
(let ((.def_277 (and .def_46 .def_276)))
(let ((.def_278 (and .def_50 .def_277)))
(let ((.def_279 (and .def_54 .def_278)))
(let ((.def_280 (and .def_58 .def_279)))
(let ((.def_271 (not .def_270)))
(let ((.def_272 (and .def_268 .def_271)))
(let ((.def_273 (not .def_272)))
(let ((.def_281 (or .def_273 .def_280)))
(let ((.def_323 (and .def_281 .def_322)))
(let ((.def_141 (and .s.2 .def_75)))
(let ((.def_263 (and .def_17 .def_141)))
(let ((.def_264 (and .def_20 .def_263)))
(let ((.def_265 (not .def_264)))
(let ((.def_266 (or .def_73 .def_265)))
(let ((.def_324 (and .def_266 .def_323)))
(let ((.def_175 (and .s.2.next .def_113)))
(let ((.def_255 (and .def_36 .def_175)))
(let ((.def_256 (and .def_63 .def_255)))
(let ((.def_257 (and .def_42 .def_256)))
(let ((.def_258 (and .def_46 .def_257)))
(let ((.def_259 (and .def_50 .def_258)))
(let ((.def_260 (and .def_54 .def_259)))
(let ((.def_261 (and .def_58 .def_260)))
(let ((.def_241 (<= 0 main.from)))
(let ((.def_123 (and .def_12 .s.2)))
(let ((.def_239 (and .def_17 .def_123)))
(let ((.def_240 (and .def_20 .def_239)))
(let ((.def_253 (and .def_240 .def_241)))
(let ((.def_254 (not .def_253)))
(let ((.def_262 (or .def_254 .def_261)))
(let ((.def_325 (and .def_262 .def_324)))
(let ((.def_132 (and .def_31 .s.2.next)))
(let ((.def_245 (and .def_36 .def_132)))
(let ((.def_246 (and .def_63 .def_245)))
(let ((.def_247 (and .def_42 .def_246)))
(let ((.def_248 (and .def_46 .def_247)))
(let ((.def_249 (and .def_50 .def_248)))
(let ((.def_250 (and .def_54 .def_249)))
(let ((.def_251 (and .def_58 .def_250)))
(let ((.def_242 (not .def_241)))
(let ((.def_243 (and .def_240 .def_242)))
(let ((.def_244 (not .def_243)))
(let ((.def_252 (or .def_244 .def_251)))
(let ((.def_326 (and .def_252 .def_325)))
(let ((.def_109 (and .s.2 .def_23)))
(let ((.def_235 (and .def_17 .def_109)))
(let ((.def_236 (and .def_20 .def_235)))
(let ((.def_237 (not .def_236)))
(let ((.def_238 (or .def_73 .def_237)))
(let ((.def_327 (and .def_238 .def_326)))
(let ((.def_81 (and .def_33 .def_80)))
(let ((.def_227 (and .s.3.next .def_81)))
(let ((.def_228 (and .def_63 .def_227)))
(let ((.def_229 (and .def_42 .def_228)))
(let ((.def_230 (and .def_46 .def_229)))
(let ((.def_231 (and .def_50 .def_230)))
(let ((.def_232 (and .def_54 .def_231)))
(let ((.def_233 (and .def_58 .def_232)))
(let ((.def_213 (<= main.from main.k)))
(let ((.def_91 (and .s.2 .def_90)))
(let ((.def_211 (and .def_17 .def_91)))
(let ((.def_212 (and .def_20 .def_211)))
(let ((.def_225 (and .def_212 .def_213)))
(let ((.def_226 (not .def_225)))
(let ((.def_234 (or .def_226 .def_233)))
(let ((.def_328 (and .def_234 .def_327)))
(let ((.def_217 (and .s.3.next .def_66)))
(let ((.def_218 (and .def_63 .def_217)))
(let ((.def_219 (and .def_42 .def_218)))
(let ((.def_220 (and .def_46 .def_219)))
(let ((.def_221 (and .def_50 .def_220)))
(let ((.def_222 (and .def_54 .def_221)))
(let ((.def_223 (and .def_58 .def_222)))
(let ((.def_214 (not .def_213)))
(let ((.def_215 (and .def_212 .def_214)))
(let ((.def_216 (not .def_215)))
(let ((.def_224 (or .def_216 .def_223)))
(let ((.def_329 (and .def_224 .def_328)))
(let ((.def_207 (and .s.3 .def_76)))
(let ((.def_208 (and .def_20 .def_207)))
(let ((.def_209 (not .def_208)))
(let ((.def_210 (or .def_73 .def_209)))
(let ((.def_330 (and .def_210 .def_329)))
(let ((.def_199 (and .def_34 .s.3.next)))
(let ((.def_200 (and .def_63 .def_199)))
(let ((.def_198 (= main.i.next main.from)))
(let ((.def_201 (and .def_198 .def_200)))
(let ((.def_202 (and .def_46 .def_201)))
(let ((.def_203 (and .def_50 .def_202)))
(let ((.def_204 (and .def_54 .def_203)))
(let ((.def_205 (and .def_58 .def_204)))
(let ((.def_195 (and .def_15 .s.3)))
(let ((.def_196 (and .def_20 .def_195)))
(let ((.def_197 (not .def_196)))
(let ((.def_206 (or .def_197 .def_205)))
(let ((.def_331 (and .def_206 .def_330)))
(let ((.def_188 (= main.j.next 0)))
(let ((.def_115 (and .s.3.next .def_114)))
(let ((.def_116 (and .def_63 .def_115)))
(let ((.def_189 (and .def_116 .def_188)))
(let ((.def_190 (and .def_42 .def_189)))
(let ((.def_191 (and .def_50 .def_190)))
(let ((.def_192 (and .def_54 .def_191)))
(let ((.def_193 (and .def_58 .def_192)))
(let ((.def_184 (and .s.3 .def_24)))
(let ((.def_185 (and .def_20 .def_184)))
(let ((.def_186 (not .def_185)))
(let ((.def_194 (or .def_186 .def_193)))
(let ((.def_332 (and .def_194 .def_331)))
(let ((.def_176 (and .s.3.next .def_175)))
(let ((.def_177 (and .def_63 .def_176)))
(let ((.def_178 (and .def_42 .def_177)))
(let ((.def_179 (and .def_46 .def_178)))
(let ((.def_180 (and .def_50 .def_179)))
(let ((.def_181 (and .def_54 .def_180)))
(let ((.def_182 (and .def_58 .def_181)))
(let ((.def_160 (<= main.k main.i)))
(let ((.def_158 (and .s.3 .def_157)))
(let ((.def_159 (and .def_20 .def_158)))
(let ((.def_173 (and .def_159 .def_160)))
(let ((.def_174 (not .def_173)))
(let ((.def_183 (or .def_174 .def_182)))
(let ((.def_333 (and .def_183 .def_332)))
(let ((.def_165 (and .s.3.next .def_164)))
(let ((.def_166 (and .def_63 .def_165)))
(let ((.def_167 (and .def_42 .def_166)))
(let ((.def_168 (and .def_46 .def_167)))
(let ((.def_169 (and .def_50 .def_168)))
(let ((.def_170 (and .def_54 .def_169)))
(let ((.def_171 (and .def_58 .def_170)))
(let ((.def_161 (not .def_160)))
(let ((.def_162 (and .def_159 .def_161)))
(let ((.def_163 (not .def_162)))
(let ((.def_172 (or .def_163 .def_171)))
(let ((.def_334 (and .def_172 .def_333)))
(let ((.def_149 (and .s.3.next .def_148)))
(let ((.def_150 (and .def_63 .def_149)))
(let ((.def_145 (* (- 1) main.i.next)))
(let ((.def_146 (+ main.i .def_145)))
(let ((.def_147 (= .def_146 (- 1))))
(let ((.def_151 (and .def_147 .def_150)))
(let ((.def_152 (and .def_46 .def_151)))
(let ((.def_153 (and .def_50 .def_152)))
(let ((.def_154 (and .def_54 .def_153)))
(let ((.def_155 (and .def_58 .def_154)))
(let ((.def_142 (and .s.3 .def_141)))
(let ((.def_143 (and .def_20 .def_142)))
(let ((.def_144 (not .def_143)))
(let ((.def_156 (or .def_144 .def_155)))
(let ((.def_335 (and .def_156 .def_334)))
(let ((.def_133 (and .s.3.next .def_132)))
(let ((.def_134 (and .def_63 .def_133)))
(let ((.def_129 (* (- 1) main.j.next)))
(let ((.def_130 (+ main.j .def_129)))
(let ((.def_131 (= .def_130 (- 1))))
(let ((.def_135 (and .def_131 .def_134)))
(let ((.def_136 (and .def_42 .def_135)))
(let ((.def_137 (and .def_50 .def_136)))
(let ((.def_138 (and .def_54 .def_137)))
(let ((.def_139 (and .def_58 .def_138)))
(let ((.def_124 (and .s.3 .def_123)))
(let ((.def_125 (and .def_20 .def_124)))
(let ((.def_126 (not .def_125)))
(let ((.def_140 (or .def_126 .def_139)))
(let ((.def_336 (and .def_140 .def_335)))
(let ((.def_117 (and .def_42 .def_116)))
(let ((.def_118 (and .def_46 .def_117)))
(let ((.def_119 (and .def_50 .def_118)))
(let ((.def_120 (and .def_54 .def_119)))
(let ((.def_121 (and .def_58 .def_120)))
(let ((.def_110 (and .s.3 .def_109)))
(let ((.def_111 (and .def_20 .def_110)))
(let ((.def_112 (not .def_111)))
(let ((.def_122 (or .def_112 .def_121)))
(let ((.def_337 (and .def_122 .def_336)))
(let ((.def_95 (<= 101 main.j)))
(let ((.def_92 (and .s.3 .def_91)))
(let ((.def_93 (and .def_20 .def_92)))
(let ((.def_106 (and .def_93 .def_95)))
(let ((.def_107 (not .def_106)))
(let ((.def_39 (and .def_37 .s.4.next)))
(let ((.def_43 (and .def_39 .def_42)))
(let ((.def_47 (and .def_43 .def_46)))
(let ((.def_51 (and .def_47 .def_50)))
(let ((.def_55 (and .def_51 .def_54)))
(let ((.def_59 (and .def_55 .def_58)))
(let ((.def_108 (or .def_59 .def_107)))
(let ((.def_338 (and .def_108 .def_337)))
(let ((.def_99 (and .s.4.next .def_67)))
(let ((.def_100 (and .def_42 .def_99)))
(let ((.def_101 (and .def_46 .def_100)))
(let ((.def_102 (and .def_50 .def_101)))
(let ((.def_103 (and .def_54 .def_102)))
(let ((.def_104 (and .def_58 .def_103)))
(let ((.def_96 (not .def_95)))
(let ((.def_97 (and .def_93 .def_96)))
(let ((.def_98 (not .def_97)))
(let ((.def_105 (or .def_98 .def_104)))
(let ((.def_339 (and .def_105 .def_338)))
(let ((.def_82 (and .def_36 .def_81)))
(let ((.def_83 (and .s.4.next .def_82)))
(let ((.def_84 (and .def_42 .def_83)))
(let ((.def_85 (and .def_46 .def_84)))
(let ((.def_86 (and .def_50 .def_85)))
(let ((.def_87 (and .def_54 .def_86)))
(let ((.def_88 (and .def_58 .def_87)))
(let ((.def_78 (and .s.4 .def_77)))
(let ((.def_79 (not .def_78)))
(let ((.def_89 (or .def_79 .def_88)))
(let ((.def_340 (and .def_89 .def_339)))
(let ((.def_61 (and .def_18 .s.4)))
(let ((.def_62 (not .def_61)))
(let ((.def_74 (or .def_62 .def_73)))
(let ((.def_341 (and .def_74 .def_340)))
(let ((.def_26 (and .s.4 .def_25)))
(let ((.def_27 (not .def_26)))
(let ((.def_60 (or .def_27 .def_59)))
(let ((.def_342 (and .def_60 .def_341)))
.def_342)))))))))))))))))))))))))))))))))))))))))))))))))))))))))))))))))))))))))))))))))))))))))))))))))))))))))))))))))))))))))))))))))))))))))))))))))))))))))))))))))))))))))))))))))))))))))))))))))))))))))))))))))))))))))))))))))))))))))))))))))))))))))))))))))))))))))))))))))))))))))))))))))))))))))))))))))))))) (state |.s.1.next| |.s.0.next| |.s.2.next| |.s.3.next| |.s.4.next| |main.i.next| |main.j.next| |main.k.next| |main.to.next| |main.from.next|))))
(assert (forall ((|.s.2| Bool) (|.s.3| Bool) (|.s.0| Bool) (|.s.1| Bool) (|.s.1.next| Bool) (|.s.0.next| Bool) (|.s.2.next| Bool) (|.s.3.next| Bool) (|.s.4.next| Bool) (|main.i.next| Int) (|main.i| Int) (|main.j.next| Int) (|main.j| Int) (|main.k.next| Int) (|main.k| Int) (|main.to.next| Int) (|main.to| Int) (|main.from.next| Int) (|main.from| Int) (|.s.4| Bool)) (=> (state |.s.1| |.s.0| |.s.2| |.s.3| |.s.4| |main.i| |main.j| |main.k| |main.to| |main.from|) (let ((.def_22 (not .s.0)))
(let ((.def_23 (and .s.1 .def_22)))
(let ((.def_14 (not .s.2)))
(let ((.def_24 (and .def_14 .def_23)))
(let ((.def_17 (not .s.3)))
(let ((.def_25 (and .def_17 .def_24)))
(let ((.def_26 (and .s.4 .def_25)))
(let ((.def_27 (not .def_26)))
.def_27)))))))))))
(check-sat)
